NAME : ulysses22.23532.tour
COMMENT : Cost = 0_23532
COMMENT : Found by LKH [Keld Helsgaun] Thu Nov 16 16:24:43 2017
TYPE : TOUR
DIMENSION : 41
TOUR_SECTION
1
8
41
9
11
40
5
39
6
38
10
37
7
36
19
35
15
34
20
33
21
32
2
31
3
30
14
29
12
28
13
27
17
26
18
25
4
24
22
23
16
-1
EOF
